webassembly/ejemplos_dzn/folder8_json_52.dzn
TERM = { '.', 's(2)', 'in_1', 'local_1', 'in_2', 'in_3', 's(1)', 's(0)', 's(3)', 'in_0'};
null = '.';
s = 8;
n = 10;
ndeps = 4;
max_registers_sz = 3;
NR = 0;
registers = [| |];
dependencies = [|'i32.load_2', 'i32.store8_5', |'i32.store8_5', 'i32.store8_6', |'i32.store8_6', 'i32.load_7', |'i32.load16_u_4', 'i32.store8_5'|];
GET_ENUM = { GET1, GET2, GET3};
SET_ENUM = { SET1, SET2, SET3};
TEE_ENUM = { TEE1, TEE2, TEE3};
N = 7;
OP = { 'i32.sub_0', 'i32.load_2', 'i32.load16_u_4', 'i32.store8_5', 'i32.store8_6', 'i32.load_7', 'local.get_0' };
in_ops = [2, 1, 1, 2, 2, 1, 0 ];
out_ops = [1, 1, 1, 0, 0, 1, 1 ];
in1 = ['local_1', 's(0)', 'local_1', 's(2)', 'in_1', 'in_3', '.' ];
in2 = ['in_0', '.', '.', 's(1)', 'in_2', '.', '.' ];
in3 = ['.', '.', '.', '.', '.', '.', '.' ];
out1 = ['s(0)', 's(1)', 's(2)', '.', '.', 's(3)', 'local_1' ];
out2 = ['.', '.', '.', '.', '.', '.', '.' ];
out3 = ['.', '.', '.', '.', '.', '.', '.' ];
comm = [false, false, false, false, false, false, false ];
gas = [1, 1, 1, 1, 1, 1, 1 ];
sz = [1, 1, 1, 1, 1, 1, 1 ];
stor = [false, false, false, true, true, false, false ];
lb = [ 1, 1, 1, 1, 1, 1, 1 ];
ub = [ 8, 8, 8, 8, 8, 8, 8 ];
startstack = [ 'in_0', 'in_1', 'in_2', 'in_3', null, null, null, null, null, null ];
endstack = [ 's(3)', null, null, null, null, null, null, null, null, null ];
